\* berth *\
Minimize
OBJ: 465 mid_for_y_0 + 516 mid_for_y_1 + 536 mid_for_y_10 + 450 mid_for_y_11
 + 535 mid_for_y_12 + 592 mid_for_y_13 + 495 mid_for_y_14 + 489 mid_for_y_2
 + 493 mid_for_y_3 + 441 mid_for_y_4 + 424 mid_for_y_5 + 409 mid_for_y_6
 + 472 mid_for_y_7 + 593 mid_for_y_8 + 406 mid_for_y_9 + 546 mid_x_0
 + 422 mid_x_1 + 504 mid_x_10 + 430 mid_x_11 + 427 mid_x_12 + 526 mid_x_13
 + 571 mid_x_14 + 598 mid_x_2 + 401 mid_x_3 + 528 mid_x_4 + 438 mid_x_5
 + 421 mid_x_6 + 515 mid_x_7 + 568 mid_x_8 + 563 mid_x_9
Subject To
_C1: mid_x_0 >= 0
_C10: - mid_x_1 - x_1 <= -586
_C100: mid_for_y_12 >= 0
_C101: mid_for_y_12 - y_12 >= -104
_C102: x_12 <= 501
_C103: y_12 >= 104
_C104: x_12 >= 0
_C105: mid_x_13 >= 0
_C106: - mid_x_13 - x_13 <= -574
_C107: mid_x_13 - x_13 >= -574
_C108: mid_for_y_13 >= 0
_C109: mid_for_y_13 - y_13 >= -87
_C11: mid_x_1 - x_1 >= -586
_C110: x_13 <= 516
_C111: y_13 >= 87
_C112: x_13 >= 0
_C113: mid_x_14 >= 0
_C114: - mid_x_14 - x_14 <= -201
_C115: mid_x_14 - x_14 >= -201
_C116: mid_for_y_14 >= 0
_C117: mid_for_y_14 - y_14 >= -12
_C118: x_14 <= 517
_C119: y_14 >= 12
_C12: mid_for_y_1 >= 0
_C120: x_14 >= 0
_C121: - x_2 + x_4 + 100000000 z_x_(4,_2) <= 99999906
_C122: x_2 - x_4 + 100000000 z_x_(2,_4) <= 99999903
_C123: - y_2 + y_4 + 100000000 z_y_(4,_2) <= 99999965
_C124: y_2 - y_4 + 100000000 z_y_(2,_4) <= 99999968
_C125: z_x_(2,_4) + z_x_(4,_2) + z_y_(2,_4) + z_y_(4,_2) >= 1
_C126: - x_5 + x_6 + 100000000 z_x_(6,_5) <= 99999905
_C127: x_5 - x_6 + 100000000 z_x_(5,_6) <= 99999914
_C128: - y_5 + y_6 + 100000000 z_y_(6,_5) <= 99999971
_C129: y_5 - y_6 + 100000000 z_y_(5,_6) <= 99999970
_C13: mid_for_y_1 - y_1 >= -147
_C130: z_x_(5,_6) + z_x_(6,_5) + z_y_(5,_6) + z_y_(6,_5) >= 1
_C131: - x_0 + x_7 + 100000000 z_x_(7,_0) <= 99999903
_C132: x_0 - x_7 + 100000000 z_x_(0,_7) <= 99999916
_C133: - y_0 + y_7 + 100000000 z_y_(7,_0) <= 99999973
_C134: y_0 - y_7 + 100000000 z_y_(0,_7) <= 99999966
_C135: z_x_(0,_7) + z_x_(7,_0) + z_y_(0,_7) + z_y_(7,_0) >= 1
_C136: x_10 - x_7 + 100000000 z_x_(10,_7) <= 99999913
_C137: - x_10 + x_7 + 100000000 z_x_(7,_10) <= 99999903
_C138: y_10 - y_7 + 100000000 z_y_(10,_7) <= 99999974
_C139: - y_10 + y_7 + 100000000 z_y_(7,_10) <= 99999973
_C14: x_1 <= 509
_C140: z_x_(10,_7) + z_x_(7,_10) + z_y_(10,_7) + z_y_(7,_10) >= 1
_C141: x_12 - x_3 + 100000000 z_x_(12,_3) <= 99999901
_C142: - x_12 + x_3 + 100000000 z_x_(3,_12) <= 99999917
_C143: y_12 - y_3 + 100000000 z_y_(12,_3) <= 99999973
_C144: - y_12 + y_3 + 100000000 z_y_(3,_12) <= 99999975
_C145: z_x_(12,_3) + z_x_(3,_12) + z_y_(12,_3) + z_y_(3,_12) >= 1
_C146: x_13 - x_9 + 100000000 z_x_(13,_9) <= 99999916
_C147: - x_13 + x_9 + 100000000 z_x_(9,_13) <= 99999907
_C148: y_13 - y_9 + 100000000 z_y_(13,_9) <= 99999968
_C149: - y_13 + y_9 + 100000000 z_y_(9,_13) <= 99999968
_C15: y_1 >= 147
_C150: z_x_(13,_9) + z_x_(9,_13) + z_y_(13,_9) + z_y_(9,_13) >= 1
_C151: x_10 - x_3 + 100000000 z_x_(10,_3) <= 99999913
_C152: - x_10 + x_3 + 100000000 z_x_(3,_10) <= 99999917
_C153: y_10 - y_3 + 100000000 z_y_(10,_3) <= 99999974
_C154: - y_10 + y_3 + 100000000 z_y_(3,_10) <= 99999975
_C155: z_x_(10,_3) + z_x_(3,_10) + z_y_(10,_3) + z_y_(3,_10) >= 1
_C16: x_1 >= 0
_C17: mid_x_2 >= 0
_C18: - mid_x_2 - x_2 <= -365
_C19: mid_x_2 - x_2 >= -365
_C2: - mid_x_0 - x_0 <= -149
_C20: mid_for_y_2 >= 0
_C21: mid_for_y_2 - y_2 >= -131
_C22: x_2 <= 503
_C23: y_2 >= 131
_C24: x_2 >= 0
_C25: mid_x_3 >= 0
_C26: - mid_x_3 - x_3 <= -277
_C27: mid_x_3 - x_3 >= -277
_C28: mid_for_y_3 >= 0
_C29: mid_for_y_3 - y_3 >= -89
_C3: mid_x_0 - x_0 >= -149
_C30: x_3 <= 517
_C31: y_3 >= 89
_C32: x_3 >= 0
_C33: mid_x_4 >= 0
_C34: - mid_x_4 - x_4 <= -357
_C35: mid_x_4 - x_4 >= -357
_C36: mid_for_y_4 >= 0
_C37: mid_for_y_4 - y_4 >= -138
_C38: x_4 <= 506
_C39: y_4 >= 138
_C4: mid_for_y_0 >= 0
_C40: x_4 >= 0
_C41: mid_x_5 >= 0
_C42: - mid_x_5 - x_5 <= -41
_C43: mid_x_5 - x_5 >= -41
_C44: mid_for_y_5 >= 0
_C45: mid_for_y_5 - y_5 >= -116
_C46: x_5 <= 514
_C47: y_5 >= 116
_C48: x_5 >= 0
_C49: mid_x_6 >= 0
_C5: mid_for_y_0 - y_0 >= -62
_C50: - mid_x_6 - x_6 <= -71
_C51: mid_x_6 - x_6 >= -71
_C52: mid_for_y_6 >= 0
_C53: mid_for_y_6 - y_6 >= -134
_C54: x_6 <= 505
_C55: y_6 >= 134
_C56: x_6 >= 0
_C57: mid_x_7 >= 0
_C58: - mid_x_7 - x_7 <= -223
_C59: mid_x_7 - x_7 >= -223
_C6: x_0 <= 516
_C60: mid_for_y_7 >= 0
_C61: mid_for_y_7 - y_7 >= -46
_C62: x_7 <= 503
_C63: y_7 >= 46
_C64: x_7 >= 0
_C65: mid_x_8 >= 0
_C66: - mid_x_8 - x_8 <= -393
_C67: mid_x_8 - x_8 >= -393
_C68: mid_for_y_8 >= 0
_C69: mid_for_y_8 - y_8 >= -63
_C7: y_0 >= 62
_C70: x_8 <= 502
_C71: y_8 >= 63
_C72: x_8 >= 0
_C73: mid_x_9 >= 0
_C74: - mid_x_9 - x_9 <= -513
_C75: mid_x_9 - x_9 >= -513
_C76: mid_for_y_9 >= 0
_C77: mid_for_y_9 - y_9 >= -60
_C78: x_9 <= 507
_C79: y_9 >= 60
_C8: x_0 >= 0
_C80: x_9 >= 0
_C81: mid_x_10 >= 0
_C82: - mid_x_10 - x_10 <= -261
_C83: mid_x_10 - x_10 >= -261
_C84: mid_for_y_10 >= 0
_C85: mid_for_y_10 - y_10 >= -63
_C86: x_10 <= 513
_C87: y_10 >= 63
_C88: x_10 >= 0
_C89: mid_x_11 >= 0
_C9: mid_x_1 >= 0
_C90: - mid_x_11 - x_11 <= -406
_C91: mid_x_11 - x_11 >= -406
_C92: mid_for_y_11 >= 0
_C93: mid_for_y_11 - y_11 >= -5
_C94: x_11 <= 519
_C95: y_11 >= 5
_C96: x_11 >= 0
_C97: mid_x_12 >= 0
_C98: - mid_x_12 - x_12 <= -355
_C99: mid_x_12 - x_12 >= -355
Binaries
z_x_(0,_7)
z_x_(10,_3)
z_x_(10,_7)
z_x_(12,_3)
z_x_(13,_9)
z_x_(2,_4)
z_x_(3,_10)
z_x_(3,_12)
z_x_(4,_2)
z_x_(5,_6)
z_x_(6,_5)
z_x_(7,_0)
z_x_(7,_10)
z_x_(9,_13)
z_y_(0,_7)
z_y_(10,_3)
z_y_(10,_7)
z_y_(12,_3)
z_y_(13,_9)
z_y_(2,_4)
z_y_(3,_10)
z_y_(3,_12)
z_y_(4,_2)
z_y_(5,_6)
z_y_(6,_5)
z_y_(7,_0)
z_y_(7,_10)
z_y_(9,_13)
End
